
#######################################################################
#
#                 Cambridge Crystallographic Data Centre
#                                CCDC
#
#######################################################################
#
# If this CIF has been generated from an entry in the Cambridge
# Structural Database, then it will include bibliographic, chemical,
# crystal, experimental, refinement or atomic coordinate data resulting
# from the CCDC's data processing and validation procedures.
#
#######################################################################

data_CSD_CIF_ZOJWAY
_audit_creation_date 2014-06-17
_audit_creation_method CSD-ConQuest-V1
_database_code_CSD ZOJWAY
_database_code_depnum_ccdc_archive 'CCDC 996651'
_chemical_formula_sum 'C44 H52 Cu2 N4 O17'
_chemical_formula_moiety
;
(C32 H18 Cu2 O10)n,4(C3 H7 N1 O1),3(H2 O1)
;
_journal_coden_Cambridge 1699
_journal_volume 2
_journal_year 2014
_journal_page_first 11516
_journal_name_full 'J.Mater.Chem.A '
loop_
_publ_author_name
"Hui-Min Wen"
"Bin Li"
"Daqiang Yuan"
"Hailong Wang"
"T.Yildirim"
"Wei Zhou"
"Banglin Chen"
_chemical_name_systematic
;
catena-[(\m-5-([10-(3,5-dicarboxylatophenyl)anthracen-9-yl]ethynyl)benzene-1,3
-dicarboxylato)-diaqua-di-copper N,N-dimethylformamide solvate trihydrate]
;
_chemical_name_common
;
UTSA-80
;
_cell_volume  13726.882
_exptl_crystal_colour 'green'
_exptl_crystal_density_diffrn 0.749
_exptl_crystal_description 'block'
_diffrn_ambient_temperature 100
_refine_special_details
;
The structure is disordered.The SQUEEZE/PLATON program has been used to model 
some disorder.
;
#These two values have been output from a single CSD field.
_refine_ls_R_factor_gt 0.1073
_refine_ls_wR_factor_gt 0.1073
_symmetry_cell_setting rhombohedral
_symmetry_space_group_name_H-M 'R -3 m'
_symmetry_Int_Tables_number 166
loop_
_symmetry_equiv_pos_site_id
_symmetry_equiv_pos_as_xyz
1 x,y,z
2 -y,x-y,z
3 -x+y,-x,z
4 x-y,-y,-z
5 -x,-x+y,-z
6 y,x,-z
7 2/3+x,1/3+y,1/3+z
8 2/3-y,1/3+x-y,1/3+z
9 2/3-x+y,1/3-x,1/3+z
10 2/3+x-y,1/3-y,1/3-z
11 2/3-x,1/3-x+y,1/3-z
12 2/3+y,1/3+x,1/3-z
13 1/3+x,2/3+y,2/3+z
14 1/3-y,2/3+x-y,2/3+z
15 1/3-x+y,2/3-x,2/3+z
16 1/3+x-y,2/3-y,2/3-z
17 1/3-x,2/3-x+y,2/3-z
18 1/3+y,2/3+x,2/3-z
19 -x,-y,-z
20 y,-x+y,-z
21 x-y,x,-z
22 -x+y,y,z
23 x,x-y,z
24 -y,-x,z
25 -2/3-x,-1/3-y,-1/3-z
26 -2/3+y,-1/3-x+y,-1/3-z
27 -2/3+x-y,-1/3+x,-1/3-z
28 -2/3-x+y,-1/3+y,-1/3+z
29 -2/3+x,-1/3+x-y,-1/3+z
30 -2/3-y,-1/3-x,-1/3+z
31 -1/3-x,-2/3-y,-2/3-z
32 -1/3+y,-2/3-x+y,-2/3-z
33 -1/3+x-y,-2/3+x,-2/3-z
34 -1/3-x+y,-2/3+y,-2/3+z
35 -1/3+x,-2/3+x-y,-2/3+z
36 -1/3-y,-2/3-x,-2/3+z
_cell_length_a 18.4951(7)
_cell_length_b 18.4951(7)
_cell_length_c 46.337(3)
_cell_angle_alpha 90
_cell_angle_beta 90
_cell_angle_gamma 120
_cell_formula_units_Z 6
loop_
_atom_type_symbol
_atom_type_radius_bond
C 0.68
H 0.23
Cu 1.32
O 0.68
loop_
_atom_site_label
_atom_site_type_symbol
_atom_site_fract_x
_atom_site_fract_y
_atom_site_fract_z
Cu1 Cu 0.71464(5) 0.85732(2) 0.35700(2)
O1 O 0.6356(14) 0.7429(15) 0.3674(4)
O2 O 0.5573(11) 0.7049(12) 0.3278(4)
O3 O 0.3650(8) 0.2514(10) 0.6278(4)
O4 O 0.4461(7) 0.2932(8) 0.6682(3)
O5 O 0.7806(5) 0.8903(2) 0.39711(14)
H1 H 0.81240 0.94310 0.39620
C1 C 0.5708(11) 0.6907(10) 0.3533(4)
C2 C 0.4451(14) 0.5549(14) 0.3573(7)
H2 H 0.44460 0.55540 0.33730
C3 C 0.5155(10) 0.6168(10) 0.3713(4)
C4 C 0.5288(10) 0.6054(9) 0.4000(4)
H3 H 0.57250 0.64760 0.41050
C5 C 0.4821(6) 0.5179(6) 0.4440(3)
C6 C 0.5238(5) 0.4762(5) 0.4530(3)
C7 C 0.5332(5) 0.4668(5) 0.4821(4)
C8 C 0.5010(7) 0.4990(7) 0.5024(3)
C9 C 0.4594(5) 0.5406(5) 0.4935(3)
C10 C 0.4505(5) 0.5495(5) 0.4643(4)
C11 C 0.4689(7) 0.5311(7) 0.4130(4)
C12 C 0.4097(6) 0.5903(6) 0.4549(4)
H4 H 0.40190 0.59810 0.43550
C13 C 0.3774(6) 0.6226(6) 0.4746(5)
H5 H 0.34990 0.65010 0.46920
C14 C 0.3865(6) 0.6135(6) 0.5037(5)
H6 H 0.36590 0.63410 0.51780
C15 C 0.4270(7) 0.5730(7) 0.5134(4)
H7 H 0.43400 0.56600 0.53280
C16 C 0.5555(6) 0.4445(6) 0.4326(4)
H8 H 0.54830 0.45170 0.41310
C17 C 0.5970(6) 0.4030(6) 0.4412(4)
H9 H 0.61780 0.38220 0.42720
C18 C 0.6063(6) 0.3937(6) 0.4702(5)
H10 H 0.63420 0.36580 0.47580
C19 C 0.5748(6) 0.4252(6) 0.4905(4)
H11 H 0.58160 0.41840 0.51000
C20 C 0.5105(10) 0.4895(10) 0.5340(3)
C21 C 0.5172(6) 0.4828(6) 0.5573(5)
C22 C 0.5260(8) 0.4740(8) 0.5883(4)
C23 C 0.4690(8) 0.4022(8) 0.6030(3)
H12 H 0.42050 0.36380 0.59350
C24 C 0.4834(7) 0.3857(8) 0.6309(3)
C25 C 0.5567(11) 0.4433(11) 0.6450(5)
H13 H 0.56970 0.43030 0.66300
C26 C 0.4267(4) 0.3009(6) 0.64378(19)
O1E O 0.7429(14) 0.6356(15) 0.6326(4)
O2E O 0.7049(11) 0.5573(12) 0.6722(4)
O3E O 0.2514(8) 0.365(1) 0.3722(4)
O4E O 0.2932(7) 0.4461(8) 0.3318(3)
C1E C 0.6907(11) 0.5708(10) 0.6467(4)
C2E C 0.5549(14) 0.4451(14) 0.6427(7)
H2E H 0.55540 0.44460 0.66270
C3E C 0.6168(10) 0.5155(10) 0.6287(4)
C4E C 0.6054(10) 0.5288(9) 0.6000(4)
H3E H 0.64760 0.57250 0.58950
C5E C 0.5179(6) 0.4821(6) 0.5560(3)
C6E C 0.4762(5) 0.5238(5) 0.5470(3)
C7E C 0.4668(5) 0.5332(5) 0.5179(4)
C8E C 0.4990(7) 0.5010(7) 0.4976(3)
C9E C 0.5406(5) 0.4594(5) 0.5065(3)
C10E C 0.5495(5) 0.4505(5) 0.5357(4)
C11E C 0.5311(7) 0.4689(7) 0.5870(4)
C12E C 0.5903(6) 0.4097(6) 0.5451(4)
H4E H 0.59810 0.40190 0.56450
C13E C 0.6226(6) 0.3774(6) 0.5254(5)
H5E H 0.65010 0.34990 0.53080
C14E C 0.6135(6) 0.3865(6) 0.4963(5)
H6E H 0.63410 0.36590 0.48220
C15E C 0.5730(7) 0.4270(7) 0.4866(4)
H7E H 0.56600 0.43400 0.46720
C16E C 0.4445(6) 0.5555(6) 0.5674(4)
H8E H 0.45170 0.54830 0.58690
C17E C 0.4030(6) 0.5970(6) 0.5588(4)
H9E H 0.38220 0.61780 0.57280
C18E C 0.3937(6) 0.6063(6) 0.5298(5)
H10E H 0.36580 0.63420 0.52420
C19E C 0.4252(6) 0.5748(6) 0.5095(4)
H11E H 0.41840 0.58160 0.49000
C20E C 0.4895(10) 0.5105(10) 0.4660(3)
C21E C 0.4828(6) 0.5172(6) 0.4427(5)
C22E C 0.4740(8) 0.5260(8) 0.4117(4)
C23E C 0.4022(8) 0.4690(8) 0.3970(3)
H12E H 0.36380 0.42050 0.40650
C24E C 0.3857(7) 0.4834(8) 0.3691(3)
C25E C 0.4433(11) 0.5567(11) 0.3550(5)
H13E H 0.43030 0.56970 0.33700
C26E C 0.3009(4) 0.4267(6) 0.35622(19)
O1R O 0.3644(14) 0.2571(15) 0.6326(4)
O2R O 0.4427(11) 0.2951(12) 0.6722(4)
O3R O 0.6350(8) 0.7486(10) 0.3722(4)
O4R O 0.5539(7) 0.7068(8) 0.3318(3)
C1R C 0.4292(11) 0.3093(10) 0.6467(4)
C3R C 0.4845(10) 0.3832(10) 0.6287(4)
C4R C 0.4712(10) 0.3946(9) 0.6000(4)
H3R H 0.42750 0.35240 0.58950
C23R C 0.5310(8) 0.5978(8) 0.3970(3)
H12R H 0.57950 0.63620 0.40650
C24R C 0.5166(7) 0.6143(8) 0.3691(3)
C26R C 0.5733(4) 0.6991(6) 0.35622(19)
O1W O 0.2571(14) 0.3644(15) 0.3674(4)
O2W O 0.2951(11) 0.4427(12) 0.3278(4)
O3W O 0.7486(8) 0.635(1) 0.6278(4)
O4W O 0.7068(7) 0.5539(8) 0.6682(3)
C1W C 0.3093(11) 0.4292(10) 0.3533(4)
C3W C 0.3832(10) 0.4845(10) 0.3713(4)
C4W C 0.3946(10) 0.4712(9) 0.4000(4)
H3W H 0.35240 0.42750 0.41050
C23W C 0.5978(8) 0.5310(8) 0.6030(3)
H12W H 0.63620 0.57950 0.59350
C24W C 0.6143(7) 0.5166(8) 0.6309(3)
C26W C 0.6991(4) 0.5733(6) 0.64378(19)
H1V H 0.81240 0.86930 0.39620
Cu1P Cu 0.618693(50) 0.809347(20) 0.309667(20)
O5P O 0.552733(500) 0.776367(200) 0.269557(140)
H1P H 0.52093 0.79737 0.27047
H1X H 0.52093 0.72357 0.27047
Cu1B Cu 0.14268(5) 0.28536(2) 0.35700(2)
Cu1D Cu 0.28536(5) 0.14268(2) 0.64300(2)
Cu1E Cu 0.85732(5) 0.71464(2) 0.64300(2)
Cu1F Cu 0.381307(50) 0.190653(20) 0.690333(20)
Cu1H Cu 0.809347(50) 0.618693(20) 0.690333(20)
Cu1Q Cu 0.190653(50) 0.381307(20) 0.309667(20)
O1P O 0.697733(1400) 0.773967(1500) 0.299267(400)
O1V O 0.6356(14) 0.8927(15) 0.3674(4)
O1X O 0.697733(1400) 0.923767(1500) 0.299267(400)
O2P O 0.776033(1100) 0.814267(1200) 0.338867(400)
O2V O 0.5573(11) 0.8524(12) 0.3278(4)
O2X O 0.776033(1100) 0.961767(1200) 0.338867(400)
O3D O 0.6350(8) 0.8864(10) 0.3722(4)
O3L O 0.698333(800) 0.918067(1000) 0.294467(400)
O3BA O 0.698333(800) 0.780267(1000) 0.294467(400)
O4D O 0.5539(7) 0.8471(8) 0.3318(3)
O4L O 0.779433(700) 0.959867(800) 0.334867(300)
O4BA O 0.779433(700) 0.819567(800) 0.334867(300)
#END
