####################################################################### 
# 
# This file contains crystal structure data downloaded from the 
# Cambridge Structural Database (CSD) hosted by the Cambridge 
# Crystallographic Data Centre (CCDC).
# 
# Full information about CCDC data access policies and citation 
# guidelines are available at http://www.ccdc.cam.ac.uk/access/V1 
# 
# Audit and citation data items may have been added by the CCDC. 
# Please retain this information to preserve the provenance of 
# this file and to allow appropriate attribution of the data. 
# 
#######################################################################

data_n1596
_audit_block_doi                 10.5517/cczkq4c
_database_code_depnum_ccdc_archive 'CCDC 910753'
loop_
_citation_id
_citation_doi
_citation_year
1 10.1039/c3ee24506c 2013
_audit_update_record             
;
2012-11-14 deposited with the CCDC.	2019-08-19 downloaded from the CCDC.
;
#TrackingRef 'web_deposit_cif_file_0_OmarKFarha_1352860810.n1596.cif'

_audit_creation_date             2012-02-06
_audit_creation_method           
;
Olex2 1.1
(compiled Nov 1 2011 20:42:30, GUI svn.r3906)
;
_chemical_name_common            ?
_chemical_name_systematic        
;
?
;
_chemical_formula_moiety         'C36 H21 Cu3 N9 O15'
_chemical_formula_sum            'C36 H21 Cu3 N9 O15'
_chemical_formula_weight         1010.24
_chemical_melting_point          ?
loop_
_atom_type_symbol
_atom_type_description
_atom_type_scat_dispersion_real
_atom_type_scat_dispersion_imag
_atom_type_scat_source
C C 0.0181 0.0091 'International Tables Vol C Tables 4.2.6.8 and 6.1.1.4'
H H 0.0000 0.0000 'International Tables Vol C Tables 4.2.6.8 and 6.1.1.4'
Cu Cu -1.9646 0.5888 'International Tables Vol C Tables 4.2.6.8 and 6.1.1.4'
N N 0.0311 0.0180 'International Tables Vol C Tables 4.2.6.8 and 6.1.1.4'
O O 0.0492 0.0322 'International Tables Vol C Tables 4.2.6.8 and 6.1.1.4'

_space_group_crystal_system      tetragonal
_space_group_IT_number           87
_space_group_name_H-M_alt        'I 4/m'
_space_group_name_Hall           '-I 4'
loop_
_space_group_symop_id
_space_group_symop_operation_xyz
1 'x, y, z'
2 '-y, x, z'
3 '-x, -y, z'
4 'y, -x, z'
5 'x+1/2, y+1/2, z+1/2'
6 '-y+1/2, x+1/2, z+1/2'
7 '-x+1/2, -y+1/2, z+1/2'
8 'y+1/2, -x+1/2, z+1/2'
9 '-x, -y, -z'
10 'y, -x, -z'
11 'x, y, -z'
12 '-y, x, -z'
13 '-x+1/2, -y+1/2, -z+1/2'
14 'y+1/2, -x+1/2, -z+1/2'
15 'x+1/2, y+1/2, -z+1/2'
16 '-y+1/2, x+1/2, -z+1/2'

_cell_length_a                   31.3109(11)
_cell_length_b                   31.3109(11)
_cell_length_c                   44.807(3)
_cell_angle_alpha                90.00
_cell_angle_beta                 90.00
_cell_angle_gamma                90.00
_cell_volume                     43928(4)
_cell_formula_units_Z            16
_cell_measurement_reflns_used    8868
_cell_measurement_temperature    225(2)
_cell_measurement_theta_max      55.29
_cell_measurement_theta_min      3.44
_exptl_absorpt_coefficient_mu    0.939
_exptl_absorpt_correction_T_max  0.7515
_exptl_absorpt_correction_T_min  0.5835
_exptl_absorpt_correction_type   multi-scan
_exptl_absorpt_process_details   
;
SADABS-2008/1 (Bruker,2008) was used for absorption correction.
R(int) was 0.1118 before and 0.0916 after correction.
The Ratio of minimum to maximum transmission is 0.7764.
The \l/2 correction factor is 0.0015.
;
_exptl_crystal_colour            blue
_exptl_crystal_colour_primary    blue
_exptl_crystal_density_diffrn    0.611
_exptl_crystal_density_meas      ?
_exptl_crystal_density_method    'not measured'
_exptl_crystal_description       prism
_exptl_crystal_F_000             8112
_exptl_crystal_size_max          0.10
_exptl_crystal_size_mid          0.07
_exptl_crystal_size_min          0.05
_exptl_special_details           
;
?
;
_diffrn_reflns_av_R_equivalents  0.1767
_diffrn_reflns_av_unetI/netI     0.1705
_diffrn_reflns_limit_h_max       34
_diffrn_reflns_limit_h_min       -30
_diffrn_reflns_limit_k_max       34
_diffrn_reflns_limit_k_min       -34
_diffrn_reflns_limit_l_max       27
_diffrn_reflns_limit_l_min       -49
_diffrn_reflns_number            57534
_diffrn_reflns_theta_full        59.12
_diffrn_reflns_theta_max         59.12
_diffrn_reflns_theta_min         2.82
_diffrn_ambient_temperature      225.0
_diffrn_detector_area_resol_mean 8
_diffrn_measured_fraction_theta_full 0.979
_diffrn_measured_fraction_theta_max 0.979
_diffrn_measurement_device_type  'Bruker Kappa APEX CCD area detector'
_diffrn_measurement_method       '\w and \f scans'
_diffrn_radiation_monochromator  'MX optics'
_diffrn_radiation_type           CuK\a
_diffrn_radiation_wavelength     1.54184
_diffrn_source                   microsource
_diffrn_source_current           0.65
_diffrn_source_power             0.02925
_diffrn_source_voltage           45.0
_reflns_number_gt                6899
_reflns_number_total             15789
_reflns_threshold_expression     >2sigma(I)
_computing_cell_refinement       'Bruker SAINT'
_computing_data_collection       'Bruker APEX2'
_computing_data_reduction        'Bruker SAINT'
_computing_molecular_graphics    
;
O. V. Dolomanov, L. J. Bourhis, R. J. Gildea, J. A. K. Howard and H. Puschmann,
OLEX2: a complete structure solution, refinement and analysis program.
J. Appl. Cryst. (2009). 42, 339-341.
;
_computing_publication_material  
;
O. V. Dolomanov, L. J. Bourhis, R. J. Gildea, J. A. K. Howard and H. Puschmann,
OLEX2: a complete structure solution, refinement and analysis program.
J. Appl. Cryst. (2009). 42, 339-341.
;
_computing_structure_refinement  
;
XL, G.M. Sheldrick, Acta Cryst.
(2008). A64, 112-122
;
_computing_structure_solution    
;
XM, G.M. Sheldrick, Acta Cryst.
(2008). A64, 112-122
;
_refine_diff_density_max         0.717
_refine_diff_density_min         -0.746
_refine_diff_density_rms         0.099
_refine_ls_extinction_coef       ?
_refine_ls_extinction_method     none
_refine_ls_goodness_of_fit_ref   0.941
_refine_ls_hydrogen_treatment    constr
_refine_ls_matrix_type           full
_refine_ls_number_parameters     576
_refine_ls_number_reflns         15789
_refine_ls_number_restraints     543
_refine_ls_R_factor_all          0.1631
_refine_ls_R_factor_gt           0.1158
_refine_ls_restrained_S_all      0.944
_refine_ls_shift/su_max          0.000
_refine_ls_shift/su_mean         0.000
_refine_ls_structure_factor_coef Fsqd
_refine_ls_weighting_details     
'calc w=1/[\s^2^(Fo^2^)+(0.1707P)^2^+0.0000P] where P=(Fo^2^+2Fc^2^)/3'
_refine_ls_weighting_scheme      calc
_refine_ls_wR_factor_gt          0.2993
_refine_ls_wR_factor_ref         0.3191
_refine_special_details          
;
Refinement of F^2^ against ALL reflections. The weighted R-factor wR and
goodness of fit S are based on F^2^, conventional R-factors R are based
on F, with F set to zero for negative F^2^. The threshold expression of
F^2^ > 2sigma(F^2^) is used only for calculating R-factors(gt) etc. and is
not relevant to the choice of reflections for refinement. R-factors based
on F^2^ are statistically about twice as large as those based on F, and R-
factors based on ALL data will be even larger.

Global rigid bond and similarity restraints were employed to keep displacement
parameters reasonable. An ISOR restraint was applied to C12.
;
_atom_sites_solution_hydrogens   geom
_atom_sites_solution_primary     direct
_atom_sites_solution_secondary   difmap
loop_
_atom_site_label
_atom_site_type_symbol
_atom_site_fract_x
_atom_site_fract_y
_atom_site_fract_z
_atom_site_U_iso_or_equiv
_atom_site_adp_type
_atom_site_occupancy
_atom_site_symmetry_multiplicity
_atom_site_calc_flag
_atom_site_refinement_flags
_atom_site_disorder_assembly
_atom_site_disorder_group
Cu1 Cu 0.64495(4) 0.39505(4) 0.12720(3) 0.0519(4) Uani 1 1 d U . .
Cu2 Cu 0.69391(4) 0.35868(4) 0.16816(3) 0.0517(4) Uani 1 1 d U . .
Cu3 Cu 0.53852(5) 0.25052(5) 0.0000 0.0486(4) Uani 1 2 d SDU . .
Cu4 Cu 0.55021(5) 0.16650(5) 0.0000 0.0485(4) Uani 1 2 d SDU . .
O1 O 0.59874(17) 0.3734(2) 0.15158(15) 0.0672(16) Uani 1 1 d U . .
O2 O 0.63928(18) 0.3482(2) 0.18780(12) 0.0627(15) Uani 1 1 d U . .
O3 O 0.64814(18) 0.33936(18) 0.10668(14) 0.0613(15) Uani 1 1 d U . .
O4 O 0.6871(2) 0.30753(18) 0.14342(14) 0.0706(16) Uani 1 1 d U . .
O5 O 0.69668(19) 0.41068(19) 0.10981(14) 0.0664(16) Uani 1 1 d U . .
O6 O 0.74009(19) 0.3751(2) 0.14197(15) 0.0758(17) Uani 1 1 d U . .
O7 O 0.64956(17) 0.44410(17) 0.15235(14) 0.0587(15) Uani 1 1 d U . .
O8 O 0.6942(2) 0.41524(19) 0.18747(14) 0.0707(17) Uani 1 1 d U . .
O9 O 0.6048(3) 0.4251(3) 0.09514(16) 0.123(3) Uani 1 1 d U . .
H9A H 0.6199 0.4400 0.0793 0.184 Uiso 1 1 d R . .
H9B H 0.5855 0.4064 0.0842 0.184 Uiso 1 1 d R . .
O10 O 0.7321(3) 0.3235(2) 0.2011(2) 0.116(3) Uani 1 1 d U . .
H10A H 0.7166 0.3038 0.2093 0.174 Uiso 1 1 d R . .
H10B H 0.7538 0.3116 0.1924 0.174 Uiso 1 1 d R . .
O11 O 0.5836(2) 0.25202(18) 0.03033(14) 0.0696(16) Uani 1 1 d U . .
O12 O 0.5925(2) 0.1790(2) 0.03090(14) 0.0705(17) Uani 1 1 d U . .
O13 O 0.49665(19) 0.2377(2) 0.03027(14) 0.0684(17) Uani 1 1 d U . .
O14 O 0.50532(18) 0.16577(18) -0.02982(14) 0.0627(15) Uani 1 1 d U . .
O15 O 0.5282(3) 0.3213(3) 0.0000 0.108(4) Uani 1 2 d SU . .
H15 H 0.5328 0.3309 0.0170 0.162 Uiso 1 1 calc RD . .
O16 O 0.5614(3) 0.0983(3) 0.0000 0.120(4) Uani 1 2 d SU . .
H16 H 0.5495 0.0874 -0.0147 0.179 Uiso 1 1 calc RD . .
N1 N 0.5354(3) 0.2744(4) 0.2590(2) 0.144(5) Uani 1 1 d U . .
N2 N 0.5762(3) 0.2534(6) 0.2631(3) 0.201(7) Uani 1 1 d U . .
N3 N 0.5660(3) 0.2422(6) 0.2923(3) 0.210(7) Uani 1 1 d U . .
N4 N 0.3686(6) 0.0485(4) 0.0886(3) 0.218(7) Uani 1 1 d U . .
N5 N 0.3849(6) 0.0831(4) 0.0762(3) 0.198(7) Uani 1 1 d U . .
N6 N 0.3876(4) 0.1121(3) 0.0985(3) 0.138(4) Uani 1 1 d U . .
N7 N 0.6894(4) 0.1514(3) 0.1160(3) 0.152(5) Uani 1 1 d U . .
N8 N 0.7209(5) 0.1563(4) 0.1368(3) 0.173(6) Uani 1 1 d U . .
N9 N 0.7282(5) 0.1137(3) 0.1443(3) 0.157(5) Uani 1 1 d U . .
C1 C 0.6030(3) 0.3548(3) 0.1743(2) 0.0549(19) Uani 1 1 d U . .
C2 C 0.5639(3) 0.3342(4) 0.1916(2) 0.088(3) Uani 1 1 d U . .
C3 C 0.5689(3) 0.3160(3) 0.2170(2) 0.069(3) Uani 1 1 d U . .
H3 H 0.5960 0.3142 0.2260 0.082 Uiso 1 1 calc R . .
C4 C 0.5342(4) 0.2994(5) 0.2304(3) 0.111(4) Uani 1 1 d U . .
C5 C 0.5079(3) 0.2626(4) 0.2763(2) 0.103(4) Uani 1 1 d U . .
H5 H 0.4782 0.2668 0.2749 0.123 Uiso 1 1 calc R . .
C6 C 0.5315(3) 0.2404(5) 0.2999(3) 0.132(5) Uani 1 1 d U . .
C7 C 0.5143(4) 0.2237(6) 0.3272(3) 0.152(6) Uani 1 1 d U . .
C8 C 0.4696(4) 0.2180(5) 0.3322(3) 0.163(7) Uani 1 1 d U . .
H8 H 0.4502 0.2252 0.3170 0.195 Uiso 1 1 calc R . .
C9 C 0.4559(4) 0.2037(7) 0.3560(4) 0.189(9) Uani 1 1 d U . .
C10 C 0.3293(7) -0.0127(4) 0.1276(3) 0.175(8) Uani 1 1 d U . .
H10 H 0.3466 -0.0240 0.1124 0.210 Uiso 1 1 calc R . .
C11 C 0.3335(7) 0.0275(4) 0.1341(3) 0.160(7) Uani 1 1 d U . .
C12 C 0.5431(3) 0.1972(4) 0.3435(3) 0.127(5) Uani 1 1 d U . .
H12 H 0.5726 0.1993 0.3398 0.152 Uiso 1 1 calc R . .
C13 C 0.3557(5) 0.0535(4) 0.1155(4) 0.154(6) Uani 1 1 d U . .
C14 C 0.3632(5) 0.1026(4) 0.1205(3) 0.131(5) Uani 1 1 d U . .
H14 H 0.3525 0.1203 0.1357 0.158 Uiso 1 1 calc R . .
C15 C 0.4070(4) 0.1493(3) 0.0900(3) 0.104(4) Uani 1 1 d U . .
C16 C 0.3927(3) 0.1881(3) 0.1081(3) 0.090(3) Uani 1 1 d U . .
H16A H 0.3718 0.1856 0.1230 0.108 Uiso 1 1 calc R . .
C17 C 0.4123(3) 0.2286(3) 0.1015(2) 0.064(2) Uani 1 1 d U . .
C18 C 0.4384(3) 0.2293(3) 0.0790(2) 0.075(3) Uani 1 1 d U . .
H18 H 0.4446 0.2566 0.0715 0.090 Uiso 1 1 calc R . .
C19 C 0.4588(4) 0.1953(3) 0.0643(2) 0.078(3) Uani 1 1 d U . .
C20 C 0.4350(4) 0.1558(3) 0.0687(3) 0.095(4) Uani 1 1 d U . .
H20 H 0.4400 0.1333 0.0553 0.114 Uiso 1 1 calc R . .
C21 C 0.4898(3) 0.1999(3) 0.0407(2) 0.063(2) Uani 1 1 d U . .
C22 C 0.6611(4) 0.3076(3) 0.1196(2) 0.079(3) Uani 1 1 d U . .
C23 C 0.6596(3) 0.2651(3) 0.1050(2) 0.066(2) Uani 1 1 d U . .
C24 C 0.6359(3) 0.2616(3) 0.0802(2) 0.058(2) Uani 1 1 d U . .
H24 H 0.6245 0.2863 0.0713 0.069 Uiso 1 1 calc R . .
C25 C 0.6277(3) 0.2205(3) 0.0670(2) 0.067(3) Uani 1 1 d U . .
C26 C 0.6471(3) 0.1874(3) 0.0790(3) 0.087(3) Uani 1 1 d U . .
H26 H 0.6466 0.1614 0.0684 0.104 Uiso 1 1 calc R . .
C27 C 0.6680(5) 0.1884(3) 0.1060(3) 0.121(5) Uani 1 1 d U . .
C28 C 0.6781(5) 0.2303(3) 0.1169(3) 0.114(5) Uani 1 1 d U . .
H28 H 0.6978 0.2335 0.1326 0.137 Uiso 1 1 calc R . .
C29 C 0.6025(3) 0.2155(3) 0.0417(2) 0.072(2) Uani 1 1 d U . .
C30 C 0.6718(6) 0.1112(3) 0.1162(3) 0.169(7) Uani 1 1 d U . .
H30 H 0.6466 0.1006 0.1075 0.203 Uiso 1 1 calc R . .
C030 C 0.7373(3) 0.3999(3) 0.1181(2) 0.074(2) Uani 1 1 d U . .
C31 C 0.7040(6) 0.0903(4) 0.1339(4) 0.172(7) Uani 1 1 d U . .
C32 C 0.6569(4) 0.5228(3) 0.1790(3) 0.106(4) Uani 1 1 d U . .
H32 H 0.6377 0.5196 0.1631 0.127 Uiso 1 1 calc R . .
C33 C 0.6771(3) 0.4889(3) 0.1909(2) 0.071(3) Uani 1 1 d U . .
C34 C 0.6978(4) 0.4916(4) 0.2178(3) 0.099(4) Uani 1 1 d U . .
H34 H 0.7094 0.4676 0.2274 0.119 Uiso 1 1 calc R . .
C35 C 0.6726(3) 0.4482(3) 0.1759(2) 0.072(2) Uani 1 1 d U . .

loop_
_atom_site_aniso_label
_atom_site_aniso_U_11
_atom_site_aniso_U_22
_atom_site_aniso_U_33
_atom_site_aniso_U_23
_atom_site_aniso_U_13
_atom_site_aniso_U_12
Cu1 0.0514(7) 0.0464(7) 0.0580(7) 0.0078(6) -0.0120(6) -0.0023(5)
Cu2 0.0521(7) 0.0430(7) 0.0599(7) 0.0102(6) -0.0106(6) -0.0043(5)
Cu3 0.0561(10) 0.0384(9) 0.0514(9) 0.000 0.000 0.0002(7)
Cu4 0.0559(10) 0.0380(9) 0.0516(9) 0.000 0.000 -0.0003(7)
O1 0.039(3) 0.076(4) 0.086(4) 0.021(3) -0.013(3) 0.005(3)
O2 0.048(3) 0.084(4) 0.055(3) 0.016(3) -0.010(3) -0.001(3)
O3 0.060(4) 0.046(3) 0.079(4) -0.002(3) -0.024(3) -0.001(3)
O4 0.093(5) 0.053(3) 0.066(4) -0.001(3) -0.023(3) 0.005(3)
O5 0.057(3) 0.066(4) 0.075(4) 0.026(3) -0.006(3) 0.000(3)
O6 0.050(3) 0.103(5) 0.074(4) 0.005(3) -0.009(3) 0.008(3)
O7 0.048(3) 0.044(3) 0.084(4) -0.008(3) -0.026(3) 0.012(2)
O8 0.074(4) 0.054(3) 0.084(4) -0.004(3) -0.026(3) 0.012(3)
O9 0.103(6) 0.195(9) 0.069(4) 0.010(5) -0.038(4) 0.077(6)
O10 0.121(6) 0.093(5) 0.134(7) 0.013(5) -0.079(5) 0.022(5)
O11 0.079(4) 0.056(3) 0.074(4) 0.018(3) -0.013(3) -0.001(3)
O12 0.078(4) 0.063(4) 0.070(4) -0.017(3) -0.019(3) 0.018(3)
O13 0.076(4) 0.062(4) 0.067(4) -0.018(3) 0.028(3) 0.003(3)
O14 0.064(4) 0.053(4) 0.072(4) -0.007(3) -0.002(3) 0.005(3)
O15 0.099(8) 0.055(5) 0.169(11) 0.000 0.000 0.020(5)
O16 0.099(8) 0.034(4) 0.226(14) 0.000 0.000 -0.018(4)
N1 0.066(5) 0.252(12) 0.113(7) 0.128(8) -0.018(5) -0.008(6)
N2 0.040(5) 0.368(17) 0.194(10) 0.198(12) -0.006(6) -0.013(7)
N3 0.059(5) 0.367(17) 0.204(11) 0.224(12) 0.002(7) 0.002(9)
N4 0.367(18) 0.111(8) 0.178(11) -0.037(7) 0.170(13) -0.100(11)
N5 0.325(16) 0.094(8) 0.176(10) -0.041(7) 0.169(12) -0.069(9)
N6 0.205(11) 0.051(5) 0.158(9) -0.007(5) 0.112(8) -0.025(6)
N7 0.213(11) 0.046(4) 0.196(10) 0.027(6) -0.165(9) -0.022(5)
N8 0.210(12) 0.090(6) 0.218(12) 0.041(8) -0.160(10) -0.021(7)
N9 0.263(13) 0.054(5) 0.153(9) 0.002(6) -0.164(9) 0.002(7)
C1 0.061(4) 0.039(5) 0.065(5) 0.002(4) -0.002(4) 0.000(4)
C2 0.044(5) 0.136(9) 0.083(7) 0.055(6) 0.005(5) 0.001(5)
C3 0.038(5) 0.092(7) 0.076(6) 0.031(5) -0.007(4) 0.002(4)
C4 0.092(8) 0.157(11) 0.085(7) 0.073(7) -0.003(6) -0.006(7)
C5 0.048(5) 0.167(11) 0.093(7) 0.079(7) -0.011(5) -0.056(6)
C6 0.035(5) 0.199(12) 0.162(10) 0.125(9) 0.004(6) 0.001(7)
C7 0.056(6) 0.240(13) 0.160(10) 0.154(10) -0.018(6) -0.025(8)
C8 0.052(5) 0.258(15) 0.179(11) 0.173(12) -0.043(7) -0.057(8)
C9 0.065(8) 0.33(2) 0.171(13) 0.200(15) -0.023(8) -0.045(10)
C10 0.35(2) 0.069(7) 0.111(11) 0.033(8) 0.020(13) -0.069(11)
C11 0.318(18) 0.042(5) 0.120(10) 0.009(6) 0.125(11) 0.013(8)
C12 0.061(6) 0.137(10) 0.182(12) 0.124(9) 0.032(7) -0.016(6)
C13 0.210(13) 0.065(6) 0.186(11) -0.052(7) 0.162(10) -0.040(8)
C14 0.193(13) 0.062(6) 0.140(10) -0.005(6) 0.113(10) -0.010(7)
C15 0.132(9) 0.050(5) 0.131(9) 0.011(5) 0.067(7) 0.007(5)
C16 0.083(7) 0.066(5) 0.120(9) -0.033(6) 0.049(6) -0.009(5)
C17 0.078(6) 0.037(4) 0.076(6) 0.009(4) 0.024(5) 0.010(4)
C18 0.075(7) 0.056(5) 0.094(7) 0.001(5) 0.009(5) 0.002(4)
C19 0.119(8) 0.048(5) 0.068(6) -0.006(4) 0.035(5) -0.008(5)
C20 0.146(10) 0.042(5) 0.097(8) -0.001(5) 0.062(7) 0.019(5)
C21 0.063(6) 0.071(6) 0.056(5) -0.011(4) -0.003(4) -0.010(5)
C22 0.101(8) 0.056(4) 0.079(6) 0.011(4) -0.023(5) -0.020(5)
C23 0.088(7) 0.044(4) 0.066(5) 0.010(4) -0.022(5) -0.008(4)
C24 0.043(5) 0.052(4) 0.078(6) 0.013(4) -0.012(4) 0.002(4)
C25 0.093(7) 0.037(4) 0.072(6) 0.019(4) -0.035(5) -0.002(4)
C26 0.103(8) 0.046(5) 0.111(8) -0.007(5) -0.065(6) 0.000(5)
C27 0.172(11) 0.039(4) 0.151(10) -0.004(6) -0.115(9) 0.005(6)
C28 0.191(12) 0.041(4) 0.110(8) 0.010(5) -0.101(8) -0.020(6)
C29 0.063(6) 0.082(6) 0.072(6) -0.006(5) -0.015(4) 0.013(5)
C30 0.311(15) 0.020(4) 0.177(11) -0.017(6) -0.202(11) 0.023(6)
C030 0.076(5) 0.082(7) 0.063(6) -0.002(5) 0.000(5) 0.012(5)
C31 0.298(16) 0.051(6) 0.168(11) -0.005(7) -0.196(12) 0.012(8)
C32 0.133(10) 0.069(6) 0.115(9) 0.001(6) -0.050(8) 0.026(6)
C33 0.078(6) 0.056(5) 0.077(6) -0.002(4) -0.021(5) 0.017(4)
C34 0.102(9) 0.091(8) 0.104(8) -0.005(6) -0.046(7) -0.033(6)
C35 0.075(6) 0.066(5) 0.075(6) -0.004(4) -0.011(5) -0.005(4)

_geom_special_details            
;
All esds (except the esd in the dihedral angle between two l.s. planes)
are estimated using the full covariance matrix. The cell esds are taken
into account individually in the estimation of esds in distances, angles
and torsion angles; correlations between esds in cell parameters are only
used when they are defined by crystal symmetry. An approximate (isotropic)
treatment of cell esds is used for estimating esds involving l.s. planes.
;
loop_
_geom_bond_atom_site_label_1
_geom_bond_atom_site_label_2
_geom_bond_distance
_geom_bond_site_symmetry_2
_geom_bond_publ_flag
Cu1 Cu2 2.6489(16) . ?
Cu1 O1 1.936(6) . ?
Cu1 O3 1.974(6) . ?
Cu1 O5 1.863(6) . ?
Cu1 O7 1.911(6) . ?
Cu1 O9 2.129(6) . ?
Cu2 O2 1.952(6) . ?
Cu2 O4 1.959(6) . ?
Cu2 O6 1.932(7) . ?
Cu2 O8 1.971(6) . ?
Cu2 O10 2.196(6) . ?
Cu3 Cu4 2.656(2) . ?
Cu3 O11 1.960(6) 11 ?
Cu3 O11 1.960(6) . ?
Cu3 O13 1.929(6) 11 ?
Cu3 O13 1.928(6) . ?
Cu3 O15 2.238(9) . ?
Cu4 O12 1.956(6) 11 ?
Cu4 O12 1.956(6) . ?
Cu4 O14 1.940(6) 11 ?
Cu4 O14 1.939(6) . ?
Cu4 O16 2.164(9) . ?
O1 C1 1.182(10) . ?
O2 C1 1.303(10) . ?
O3 C22 1.218(11) . ?
O4 C22 1.343(11) . ?
O5 C030 1.368(11) . ?
O6 C030 1.324(11) . ?
O7 C35 1.285(11) . ?
O8 C35 1.339(11) . ?
O9 H9A 0.9731 . ?
O9 H9B 0.9755 . ?
O10 H10A 0.8671 . ?
O10 H10B 0.8681 . ?
O11 C29 1.386(11) . ?
O12 C29 1.280(11) . ?
O13 C21 1.289(11) . ?
O14 C21 1.272(10) 11 ?
O15 H15 0.8300 . ?
O16 H16 0.8300 . ?
N1 N2 1.449(15) . ?
N1 C4 1.500(13) . ?
N1 C5 1.217(12) . ?
N2 N3 1.393(15) . ?
N3 C6 1.135(14) . ?
N4 N5 1.320(15) . ?
N4 C13 1.279(16) . ?
N5 N6 1.353(15) . ?
N6 C14 1.284(13) . ?
N6 C15 1.368(13) . ?
N7 N8 1.366(12) . ?
N7 C27 1.412(13) . ?
N7 C30 1.375(14) . ?
N8 N9 1.394(13) . ?
N9 C31 1.153(15) . ?
C1 C2 1.585(13) . ?
C2 C3 1.284(12) . ?
C2 C32 1.432(14) 4_565 ?
C3 H3 0.9400 . ?
C3 C4 1.344(14) . ?
C4 C34 1.452(16) 4_565 ?
C5 H5 0.9400 . ?
C5 C6 1.468(14) . ?
C6 C7 1.433(16) . ?
C7 C8 1.427(15) . ?
C7 C12 1.428(15) . ?
C8 H8 0.9400 . ?
C8 C9 1.237(16) . ?
C9 C10 1.604(19) 14 ?
C9 C31 1.516(18) 16_545 ?
C10 C9 1.604(19) 16_545 ?
C10 H10 0.9400 . ?
C10 C11 1.300(17) . ?
C11 C12 1.472(15) 16_545 ?
C11 C13 1.358(16) . ?
C12 C11 1.472(15) 14 ?
C12 H12 0.9400 . ?
C13 C14 1.570(16) . ?
C14 H14 0.9400 . ?
C15 C16 1.523(14) . ?
C15 C20 1.312(14) . ?
C16 H16A 0.9400 . ?
C16 C17 1.441(13) . ?
C17 C18 1.295(12) . ?
C17 C030 1.357(13) 4_565 ?
C18 H18 0.9400 . ?
C18 C19 1.406(13) . ?
C19 C20 1.459(14) . ?
C19 C21 1.441(13) . ?
C20 H20 0.9400 . ?
C21 O14 1.272(10) 11 ?
C22 C23 1.485(13) . ?
C23 C24 1.341(12) . ?
C23 C28 1.344(13) . ?
C24 H24 0.9400 . ?
C24 C25 1.438(12) . ?
C25 C26 1.315(12) . ?
C25 C29 1.390(12) . ?
C26 H26 0.9400 . ?
C26 C27 1.377(14) . ?
C27 C28 1.436(14) . ?
C28 H28 0.9400 . ?
C30 H30 0.9400 . ?
C30 C31 1.438(15) . ?
C030 C17 1.357(13) 2_655 ?
C31 C9 1.516(18) 14 ?
C32 C2 1.432(14) 2_655 ?
C32 H32 0.9400 . ?
C32 C33 1.345(13) . ?
C33 C34 1.372(13) . ?
C33 C35 1.448(13) . ?
C34 C4 1.452(16) 2_655 ?
C34 H34 0.9400 . ?

loop_
_geom_angle_atom_site_label_1
_geom_angle_atom_site_label_2
_geom_angle_atom_site_label_3
_geom_angle
_geom_angle_site_symmetry_1
_geom_angle_site_symmetry_3
_geom_angle_publ_flag
O1 Cu1 Cu2 83.73(17) . . ?
O1 Cu1 O3 89.5(3) . . ?
O1 Cu1 O9 95.4(3) . . ?
O3 Cu1 Cu2 85.05(17) . . ?
O3 Cu1 O9 96.1(3) . . ?
O5 Cu1 Cu2 84.22(18) . . ?
O5 Cu1 O1 167.9(3) . . ?
O5 Cu1 O3 89.6(3) . . ?
O5 Cu1 O7 88.3(3) . . ?
O5 Cu1 O9 96.6(3) . . ?
O7 Cu1 Cu2 83.86(16) . . ?
O7 Cu1 O1 90.3(3) . . ?
O7 Cu1 O3 168.9(2) . . ?
O7 Cu1 O9 95.0(3) . . ?
O9 Cu1 Cu2 178.6(2) . . ?
O2 Cu2 Cu1 82.97(16) . . ?
O2 Cu2 O4 91.2(3) . . ?
O2 Cu2 O8 87.6(3) . . ?
O2 Cu2 O10 95.1(3) . . ?
O4 Cu2 Cu1 84.04(18) . . ?
O4 Cu2 O8 169.5(2) . . ?
O4 Cu2 O10 91.7(3) . . ?
O6 Cu2 Cu1 84.13(19) . . ?
O6 Cu2 O2 167.1(3) . . ?
O6 Cu2 O4 87.5(3) . . ?
O6 Cu2 O8 91.3(3) . . ?
O6 Cu2 O10 97.7(4) . . ?
O8 Cu2 Cu1 85.46(17) . . ?
O8 Cu2 O10 98.8(3) . . ?
O10 Cu2 Cu1 175.3(2) . . ?
O11 Cu3 Cu4 85.67(18) . . ?
O11 Cu3 Cu4 85.68(18) 11 . ?
O11 Cu3 O11 87.8(4) 11 . ?
O11 Cu3 O15 94.6(3) 11 . ?
O11 Cu3 O15 94.6(3) . . ?
O13 Cu3 Cu4 83.54(19) 11 . ?
O13 Cu3 Cu4 83.54(19) . . ?
O13 Cu3 O11 169.2(3) . 11 ?
O13 Cu3 O11 169.2(3) 11 . ?
O13 Cu3 O11 90.4(3) 11 11 ?
O13 Cu3 O11 90.4(3) . . ?
O13 Cu3 O13 89.4(4) . 11 ?
O13 Cu3 O15 96.2(3) 11 . ?
O13 Cu3 O15 96.2(3) . . ?
O15 Cu3 Cu4 179.6(3) . . ?
O12 Cu4 Cu3 83.98(18) . . ?
O12 Cu4 Cu3 83.98(18) 11 . ?
O12 Cu4 O12 90.1(4) . 11 ?
O12 Cu4 O16 95.0(3) . . ?
O12 Cu4 O16 95.0(3) 11 . ?
O14 Cu4 Cu3 84.94(18) 11 . ?
O14 Cu4 Cu3 84.94(18) . . ?
O14 Cu4 O12 168.8(3) 11 11 ?
O14 Cu4 O12 90.3(3) 11 . ?
O14 Cu4 O12 90.3(3) . 11 ?
O14 Cu4 O12 168.8(3) . . ?
O14 Cu4 O14 87.1(4) . 11 ?
O14 Cu4 O16 96.1(3) 11 . ?
O14 Cu4 O16 96.1(3) . . ?
O16 Cu4 Cu3 178.6(3) . . ?
C1 O1 Cu1 125.2(6) . . ?
C1 O2 Cu2 122.0(5) . . ?
C22 O3 Cu1 121.1(6) . . ?
C22 O4 Cu2 121.0(6) . . ?
C030 O5 Cu1 129.1(6) . . ?
C030 O6 Cu2 126.7(6) . . ?
C35 O7 Cu1 127.4(6) . . ?
C35 O8 Cu2 121.3(6) . . ?
Cu1 O9 H9A 114.7 . . ?
Cu1 O9 H9B 116.1 . . ?
H9A O9 H9B 102.7 . . ?
Cu2 O10 H10A 109.8 . . ?
Cu2 O10 H10B 109.7 . . ?
H10A O10 H10B 109.0 . . ?
C29 O11 Cu3 122.9(6) . . ?
C29 O12 Cu4 127.8(6) . . ?
C21 O13 Cu3 124.0(6) . . ?
C21 O14 Cu4 122.0(6) 11 . ?
Cu3 O15 H15 109.5 . . ?
Cu4 O16 H16 109.5 . . ?
N2 N1 C4 111.4(10) . . ?
C5 N1 N2 114.0(10) . . ?
C5 N1 C4 133.2(10) . . ?
N3 N2 N1 91.7(10) . . ?
C6 N3 N2 121.0(12) . . ?
C13 N4 N5 114.8(13) . . ?
N4 N5 N6 105.2(11) . . ?
N5 N6 C15 113.2(11) . . ?
C14 N6 N5 111.9(10) . . ?
C14 N6 C15 132.5(11) . . ?
N8 N7 C27 117.9(9) . . ?
N8 N7 C30 112.7(9) . . ?
C30 N7 C27 124.4(11) . . ?
N7 N8 N9 100.2(9) . . ?
C31 N9 N8 113.7(10) . . ?
O1 C1 O2 125.1(8) . . ?
O1 C1 C2 122.3(8) . . ?
O2 C1 C2 112.5(8) . . ?
C3 C2 C1 121.3(9) . . ?
C3 C2 C32 123.1(9) . 4_565 ?
C32 C2 C1 115.0(8) 4_565 . ?
C2 C3 H3 121.0 . . ?
C2 C3 C4 117.9(9) . . ?
C4 C3 H3 121.0 . . ?
C3 C4 N1 124.2(10) . . ?
C3 C4 C34 123.0(10) . 4_565 ?
C34 C4 N1 112.8(10) 4_565 . ?
N1 C5 H5 127.9 . . ?
N1 C5 C6 104.3(9) . . ?
C6 C5 H5 127.9 . . ?
N3 C6 C5 103.7(10) . . ?
N3 C6 C7 129.3(12) . . ?
C7 C6 C5 126.8(10) . . ?
C8 C7 C6 123.2(10) . . ?
C8 C7 C12 117.8(9) . . ?
C12 C7 C6 114.2(11) . . ?
C7 C8 H8 119.3 . . ?
C9 C8 C7 121.4(11) . . ?
C9 C8 H8 119.3 . . ?
C8 C9 C10 114.6(15) . 14 ?
C8 C9 C31 125.9(11) . 16_545 ?
C31 C9 C10 116.9(11) 16_545 14 ?
C9 C10 H10 118.1 16_545 . ?
C11 C10 C9 123.7(16) . 16_545 ?
C11 C10 H10 118.1 . . ?
C10 C11 C12 114.2(14) . 16_545 ?
C10 C11 C13 119.5(13) . . ?
C13 C11 C12 123.7(11) . 16_545 ?
C7 C12 C11 121.2(10) . 14 ?
C7 C12 H12 119.4 . . ?
C11 C12 H12 119.4 14 . ?
N4 C13 C11 131.9(13) . . ?
N4 C13 C14 102.0(11) . . ?
C11 C13 C14 125.0(10) . . ?
N6 C14 C13 101.9(9) . . ?
N6 C14 H14 129.1 . . ?
C13 C14 H14 129.1 . . ?
N6 C15 C16 113.7(10) . . ?
C20 C15 N6 129.1(11) . . ?
C20 C15 C16 117.3(9) . . ?
C15 C16 H16A 121.0 . . ?
C17 C16 C15 118.0(9) . . ?
C17 C16 H16A 121.0 . . ?
C18 C17 C16 116.1(9) . . ?
C18 C17 C030 126.4(9) . 4_565 ?
C030 C17 C16 117.3(9) 4_565 . ?
C17 C18 H18 115.1 . . ?
C17 C18 C19 129.9(9) . . ?
C19 C18 H18 115.1 . . ?
C18 C19 C20 110.1(9) . . ?
C18 C19 C21 125.2(9) . . ?
C21 C19 C20 122.0(8) . . ?
C15 C20 C19 124.9(10) . . ?
C15 C20 H20 117.5 . . ?
C19 C20 H20 117.5 . . ?
O13 C21 C19 118.0(9) . . ?
O14 C21 O13 124.7(8) 11 . ?
O14 C21 C19 117.0(9) 11 . ?
O3 C22 O4 125.5(9) . . ?
O3 C22 C23 120.8(9) . . ?
O4 C22 C23 111.6(8) . . ?
C24 C23 C22 117.0(8) . . ?
C24 C23 C28 120.2(9) . . ?
C28 C23 C22 122.5(9) . . ?
C23 C24 H24 119.7 . . ?
C23 C24 C25 120.7(8) . . ?
C25 C24 H24 119.7 . . ?
C26 C25 C24 117.2(8) . . ?
C26 C25 C29 120.2(9) . . ?
C29 C25 C24 122.4(8) . . ?
C25 C26 H26 118.0 . . ?
C25 C26 C27 123.9(10) . . ?
C27 C26 H26 118.0 . . ?
N7 C27 C28 122.5(9) . . ?
C26 C27 N7 119.1(10) . . ?
C26 C27 C28 115.2(9) . . ?
C23 C28 C27 120.6(9) . . ?
C23 C28 H28 119.7 . . ?
C27 C28 H28 119.7 . . ?
O11 C29 C25 116.7(9) . . ?
O12 C29 O11 119.5(8) . . ?
O12 C29 C25 123.3(9) . . ?
N7 C30 H30 131.0 . . ?
N7 C30 C31 98.0(11) . . ?
C31 C30 H30 131.0 . . ?
O6 C030 O5 115.1(9) . . ?
O6 C030 C17 124.0(9) . 2_655 ?
C17 C030 O5 120.8(9) 2_655 . ?
N9 C31 C9 119.3(10) . 14 ?
N9 C31 C30 113.3(11) . . ?
C30 C31 C9 126.3(13) . 14 ?
C2 C32 H32 121.3 2_655 . ?
C33 C32 C2 117.5(10) . 2_655 ?
C33 C32 H32 121.3 . . ?
C32 C33 C34 121.4(11) . . ?
C32 C33 C35 117.7(10) . . ?
C34 C33 C35 120.6(9) . . ?
C4 C34 H34 122.3 2_655 . ?
C33 C34 C4 115.4(11) . 2_655 ?
C33 C34 H34 122.3 . . ?
O7 C35 O8 121.7(8) . . ?
O7 C35 C33 121.6(9) . . ?
O8 C35 C33 116.7(8) . . ?

loop_
_geom_torsion_atom_site_label_1
_geom_torsion_atom_site_label_2
_geom_torsion_atom_site_label_3
_geom_torsion_atom_site_label_4
_geom_torsion
_geom_torsion_site_symmetry_1
_geom_torsion_site_symmetry_2
_geom_torsion_site_symmetry_3
_geom_torsion_site_symmetry_4
_geom_torsion_publ_flag
Cu1 Cu2 O2 C1 10.2(6) . . . . ?
Cu1 Cu2 O4 C22 -5.1(7) . . . . ?
Cu1 Cu2 O6 C030 8.6(8) . . . . ?
Cu1 Cu2 O8 C35 1.1(7) . . . . ?
Cu1 O1 C1 O2 4.7(13) . . . . ?
Cu1 O1 C1 C2 -174.2(7) . . . . ?
Cu1 O3 C22 O4 -23.8(15) . . . . ?
Cu1 O3 C22 C23 174.2(7) . . . . ?
Cu1 O5 C030 O6 -0.6(13) . . . . ?
Cu1 O5 C030 C17 175.8(7) . . . 2_655 ?
Cu1 O7 C35 O8 -6.2(14) . . . . ?
Cu1 O7 C35 C33 172.4(7) . . . . ?
Cu2 Cu1 O1 C1 2.6(7) . . . . ?
Cu2 Cu1 O3 C22 14.2(8) . . . . ?
Cu2 Cu1 O5 C030 5.1(8) . . . . ?
Cu2 Cu1 O7 C35 5.4(7) . . . . ?
Cu2 O2 C1 O1 -12.2(12) . . . . ?
Cu2 O2 C1 C2 166.8(7) . . . . ?
Cu2 O4 C22 O3 18.8(15) . . . . ?
Cu2 O4 C22 C23 -177.7(6) . . . . ?
Cu2 O6 C030 O5 -7.5(12) . . . . ?
Cu2 O6 C030 C17 176.2(8) . . . 2_655 ?
Cu2 O8 C35 O7 2.3(13) . . . . ?
Cu2 O8 C35 C33 -176.3(7) . . . . ?
Cu3 Cu4 O12 C29 0.5(8) . . . . ?
Cu3 Cu4 O14 C21 6.4(6) . . . 11 ?
Cu3 O11 C29 O12 4.8(13) . . . . ?
Cu3 O11 C29 C25 -167.7(7) . . . . ?
Cu3 O13 C21 O14 -9.8(13) . . . 11 ?
Cu3 O13 C21 C19 177.2(7) . . . . ?
Cu4 Cu3 O11 C29 -3.4(7) . . . . ?
Cu4 Cu3 O13 C21 3.4(7) . . . . ?
Cu4 O12 C29 O11 -3.1(14) . . . . ?
Cu4 O12 C29 C25 168.8(8) . . . . ?
O1 Cu1 Cu2 O2 -5.5(3) . . . . ?
O1 Cu1 Cu2 O4 86.5(3) . . . . ?
O1 Cu1 Cu2 O6 174.6(3) . . . . ?
O1 Cu1 Cu2 O8 -93.6(3) . . . . ?
O1 Cu1 Cu2 O10 61(4) . . . . ?
O1 Cu1 O3 C22 -69.5(8) . . . . ?
O1 Cu1 O5 C030 5.7(19) . . . . ?
O1 Cu1 O7 C35 89.0(8) . . . . ?
O1 C1 C2 C3 -176.6(11) . . . . ?
O1 C1 C2 C32 -5.3(16) . . . 4_565 ?
O2 Cu2 O4 C22 77.7(7) . . . . ?
O2 Cu2 O6 C030 8.4(18) . . . . ?
O2 Cu2 O8 C35 -82.1(7) . . . . ?
O2 C1 C2 C3 4.4(15) . . . . ?
O2 C1 C2 C32 175.7(10) . . . 4_565 ?
O3 Cu1 Cu2 O2 -95.5(3) . . . . ?
O3 Cu1 Cu2 O4 -3.5(3) . . . . ?
O3 Cu1 Cu2 O6 84.5(3) . . . . ?
O3 Cu1 Cu2 O8 176.4(3) . . . . ?
O3 Cu1 Cu2 O10 -29(4) . . . . ?
O3 Cu1 O1 C1 87.7(7) . . . . ?
O3 Cu1 O5 C030 -80.0(8) . . . . ?
O3 Cu1 O7 C35 0.1(18) . . . . ?
O3 C22 C23 C24 -13.3(15) . . . . ?
O3 C22 C23 C28 171.9(12) . . . . ?
O4 Cu2 O2 C1 -73.7(6) . . . . ?
O4 Cu2 O6 C030 92.9(8) . . . . ?
O4 Cu2 O8 C35 2(2) . . . . ?
O4 C22 C23 C24 -177.6(9) . . . . ?
O4 C22 C23 C28 7.6(16) . . . . ?
O5 Cu1 Cu2 O2 174.4(3) . . . . ?
O5 Cu1 Cu2 O4 -93.6(3) . . . . ?
O5 Cu1 Cu2 O6 -5.6(3) . . . . ?
O5 Cu1 Cu2 O8 86.3(3) . . . . ?
O5 Cu1 Cu2 O10 -119(4) . . . . ?
O5 Cu1 O1 C1 2.0(19) . . . . ?
O5 Cu1 O3 C22 98.4(8) . . . . ?
O5 Cu1 O7 C35 -79.0(8) . . . . ?
O6 Cu2 O2 C1 10.4(16) . . . . ?
O6 Cu2 O4 C22 -89.4(7) . . . . ?
O6 Cu2 O8 C35 85.1(7) . . . . ?
O7 Cu1 Cu2 O2 85.5(3) . . . . ?
O7 Cu1 Cu2 O4 177.5(3) . . . . ?
O7 Cu1 Cu2 O6 -94.4(3) . . . . ?
O7 Cu1 Cu2 O8 -2.6(3) . . . . ?
O7 Cu1 Cu2 O10 152(4) . . . . ?
O7 Cu1 O1 C1 -81.2(7) . . . . ?
O7 Cu1 O3 C22 19.5(18) . . . . ?
O7 Cu1 O5 C030 89.1(8) . . . . ?
O8 Cu2 O2 C1 95.9(6) . . . . ?
O8 Cu2 O4 C22 -6(2) . . . . ?
O8 Cu2 O6 C030 -76.6(8) . . . . ?
O9 Cu1 Cu2 O2 49(14) . . . . ?
O9 Cu1 Cu2 O4 141(14) . . . . ?
O9 Cu1 Cu2 O6 -131(14) . . . . ?
O9 Cu1 Cu2 O8 -40(14) . . . . ?
O9 Cu1 Cu2 O10 115(14) . . . . ?
O9 Cu1 O1 C1 -176.2(8) . . . . ?
O9 Cu1 O3 C22 -164.9(8) . . . . ?
O9 Cu1 O5 C030 -176.1(8) . . . . ?
O9 Cu1 O7 C35 -175.5(8) . . . . ?
O10 Cu2 O2 C1 -165.5(6) . . . . ?
O10 Cu2 O4 C22 172.9(8) . . . . ?
O10 Cu2 O6 C030 -175.7(8) . . . . ?
O10 Cu2 O8 C35 -176.9(7) . . . . ?
O11 Cu3 Cu4 O12 -1.3(3) 11 . . 11 ?
O11 Cu3 Cu4 O12 1.3(3) . . . . ?
O11 Cu3 Cu4 O12 -89.4(3) . . . 11 ?
O11 Cu3 Cu4 O12 89.4(3) 11 . . . ?
O11 Cu3 Cu4 O14 179.7(3) . . . . ?
O11 Cu3 Cu4 O14 -92.2(3) 11 . . . ?
O11 Cu3 Cu4 O14 -179.7(3) 11 . . 11 ?
O11 Cu3 Cu4 O14 92.2(3) . . . 11 ?
O11 Cu3 Cu4 O16 44.05(19) 11 . . . ?
O11 Cu3 Cu4 O16 -44.05(19) . . . . ?
O11 Cu3 O11 C29 -89.3(7) 11 . . . ?
O11 Cu3 O13 C21 -82.2(7) . . . . ?
O11 Cu3 O13 C21 -1.9(19) 11 . . . ?
O12 Cu4 O12 C29 84.5(8) 11 . . . ?
O12 Cu4 O14 C21 -77.5(7) 11 . . 11 ?
O12 Cu4 O14 C21 14.8(18) . . . 11 ?
O13 Cu3 Cu4 O12 89.6(3) 11 . . 11 ?
O13 Cu3 Cu4 O12 179.7(3) . . . 11 ?
O13 Cu3 Cu4 O12 -89.6(3) . . . . ?
O13 Cu3 Cu4 O12 -179.7(3) 11 . . . ?
O13 Cu3 Cu4 O14 -1.3(3) 11 . . . ?
O13 Cu3 Cu4 O14 1.3(3) . . . 11 ?
O13 Cu3 Cu4 O14 -88.8(3) 11 . . 11 ?
O13 Cu3 Cu4 O14 88.8(3) . . . . ?
O13 Cu3 Cu4 O16 134.9(2) 11 . . . ?
O13 Cu3 Cu4 O16 -135.0(2) . . . . ?
O13 Cu3 O11 C29 80.1(7) . . . . ?
O13 Cu3 O11 C29 -8.7(19) 11 . . . ?
O13 Cu3 O13 C21 87.0(7) 11 . . . ?
O14 Cu4 O12 C29 -84.4(8) 11 . . . ?
O14 Cu4 O12 C29 -8(2) . . . . ?
O14 Cu4 O14 C21 91.6(7) 11 . . 11 ?
O15 Cu3 Cu4 O12 134.6(2) . . . 11 ?
O15 Cu3 Cu4 O12 -134.6(2) . . . . ?
O15 Cu3 Cu4 O14 43.76(18) . . . . ?
O15 Cu3 Cu4 O14 -43.76(18) . . . 11 ?
O15 Cu3 Cu4 O16 180.0 . . . . ?
O15 Cu3 O11 C29 176.3(7) . . . . ?
O15 Cu3 O13 C21 -176.8(7) . . . . ?
O16 Cu4 O12 C29 179.5(8) . . . . ?
O16 Cu4 O14 C21 -172.6(7) . . . 11 ?
N1 N2 N3 C6 22(3) . . . . ?
N1 C5 C6 N3 -2(2) . . . . ?
N1 C5 C6 C7 174.0(18) . . . . ?
N2 N1 C4 C3 -27(2) . . . . ?
N2 N1 C4 C34 150.3(13) . . . 4_565 ?
N2 N1 C5 C6 16.0(19) . . . . ?
N2 N3 C6 C5 -15(3) . . . . ?
N2 N3 C6 C7 169.7(19) . . . . ?
N3 C6 C7 C8 -171(2) . . . . ?
N3 C6 C7 C12 -16(3) . . . . ?
N4 N5 N6 C14 -20(2) . . . . ?
N4 N5 N6 C15 175.4(16) . . . . ?
N4 C13 C14 N6 -15(2) . . . . ?
N5 N4 C13 C11 172(2) . . . . ?
N5 N4 C13 C14 4(3) . . . . ?
N5 N6 C14 C13 21(2) . . . . ?
N5 N6 C15 C16 152.7(14) . . . . ?
N5 N6 C15 C20 -26(3) . . . . ?
N6 C15 C16 C17 178.1(12) . . . . ?
N6 C15 C20 C19 -170.0(15) . . . . ?
N7 N8 N9 C31 -8(2) . . . . ?
N7 C27 C28 C23 174.3(15) . . . . ?
N7 C30 C31 N9 9(3) . . . . ?
N7 C30 C31 C9 177.5(19) . . . 14 ?
N8 N7 C27 C26 158.6(15) . . . . ?
N8 N7 C27 C28 0(3) . . . . ?
N8 N7 C30 C31 -14(2) . . . . ?
N8 N9 C31 C9 -170.3(18) . . . 14 ?
N8 N9 C31 C30 -1(3) . . . . ?
C1 C2 C3 C4 179.8(11) . . . . ?
C2 C3 C4 N1 175.5(14) . . . . ?
C2 C3 C4 C34 -2(2) . . . 4_565 ?
C2 C32 C33 C34 14.1(19) 2_655 . . . ?
C2 C32 C33 C35 -172.2(11) 2_655 . . . ?
C4 N1 N2 N3 170.2(14) . . . . ?
C4 N1 C5 C6 -178.9(17) . . . . ?
C5 N1 N2 N3 -21.4(19) . . . . ?
C5 N1 C4 C3 167.5(17) . . . . ?
C5 N1 C4 C34 -15(3) . . . 4_565 ?
C5 C6 C7 C8 15(3) . . . . ?
C5 C6 C7 C12 169.5(16) . . . . ?
C6 C7 C8 C9 -180(2) . . . . ?
C6 C7 C12 C11 -159.5(16) . . . 14 ?
C7 C8 C9 C10 -31(3) . . . 14 ?
C7 C8 C9 C31 168(2) . . . 16_545 ?
C8 C7 C12 C11 -3(3) . . . 14 ?
C9 C10 C11 C12 -5(3) 16_545 . . 16_545 ?
C9 C10 C11 C13 -167(2) 16_545 . . . ?
C10 C11 C13 N4 14(4) . . . . ?
C10 C11 C13 C14 179.8(19) . . . . ?
C11 C13 C14 N6 176(2) . . . . ?
C12 C7 C8 C9 26(3) . . . . ?
C12 C11 C13 N4 -147(2) 16_545 . . . ?
C12 C11 C13 C14 19(3) 16_545 . . . ?
C13 N4 N5 N6 8(3) . . . . ?
C14 N6 C15 C16 -8(3) . . . . ?
C14 N6 C15 C20 172.9(18) . . . . ?
C15 N6 C14 C13 -178.0(18) . . . . ?
C15 C16 C17 C18 4.9(17) . . . . ?
C15 C16 C17 C030 -178.7(10) . . . 4_565 ?
C16 C15 C20 C19 11(2) . . . . ?
C16 C17 C18 C19 -17.1(18) . . . . ?
C17 C18 C19 C20 23.3(18) . . . . ?
C17 C18 C19 C21 -175.4(11) . . . . ?
C18 C19 C20 C15 -19.5(19) . . . . ?
C18 C19 C21 O13 -6.7(16) . . . . ?
C18 C19 C21 O14 179.7(10) . . . 11 ?
C20 C15 C16 C17 -2.9(19) . . . . ?
C20 C19 C21 O13 152.4(10) . . . . ?
C20 C19 C21 O14 -21.1(16) . . . 11 ?
C21 C19 C20 C15 178.6(13) . . . . ?
C22 C23 C24 C25 -171.1(9) . . . . ?
C22 C23 C28 C27 165.8(13) . . . . ?
C23 C24 C25 C26 -5.1(15) . . . . ?
C23 C24 C25 C29 178.5(10) . . . . ?
C24 C23 C28 C27 -9(2) . . . . ?
C24 C25 C26 C27 12.2(19) . . . . ?
C24 C25 C29 O11 -3.0(15) . . . . ?
C24 C25 C29 O12 -175.2(9) . . . . ?
C25 C26 C27 N7 -177.1(13) . . . . ?
C25 C26 C27 C28 -17(2) . . . . ?
C26 C25 C29 O11 -179.3(10) . . . . ?
C26 C25 C29 O12 8.6(17) . . . . ?
C26 C27 C28 C23 15(2) . . . . ?
C27 N7 N8 N9 170.3(15) . . . . ?
C27 N7 C30 C31 -168.7(16) . . . . ?
C28 C23 C24 C25 3.8(16) . . . . ?
C29 C25 C26 C27 -171.3(13) . . . . ?
C30 N7 N8 N9 14(2) . . . . ?
C30 N7 C27 C26 -48(3) . . . . ?
C30 N7 C27 C28 152.9(16) . . . . ?
C030 C17 C18 C19 166.9(11) 4_565 . . . ?
C32 C2 C3 C4 9(2) 4_565 . . . ?
C32 C33 C34 C4 -7.0(18) . . . 2_655 ?
C32 C33 C35 O7 -1.1(16) . . . . ?
C32 C33 C35 O8 177.6(11) . . . . ?
C34 C33 C35 O7 172.7(10) . . . . ?
C34 C33 C35 O8 -8.7(15) . . . . ?
C35 C33 C34 C4 179.4(11) . . . 2_655 ?

_smtbx_masks_special_details     
;
The solvent masking procedure as implemented in Olex2 was used to remove the
electronic contribution of solvent molecules from the refinement. Only the
atoms used in the refinement model are reported in the formula here.


Total solvent accessible volume / cell = 32705.2 Ang^3^ [74.5%]
Total electron count / cell = 7183.9
;
loop_
_smtbx_masks_void_nr
_smtbx_masks_void_average_x
_smtbx_masks_void_average_y
_smtbx_masks_void_average_z
_smtbx_masks_void_volume
_smtbx_masks_void_count_electrons
_smtbx_masks_void_content
1 -0.315 -0.961 -0.191 32705.2 7184.5 ?

_vrf_PLAT602_I                   
;
PROBLEM: VERY LARGE Solvent Accessible VOID(S) in Structure !
RESPONSE: The solvent masking procedure as implemented in Olex2 was used to remove the
electronic contribution of solvent molecules from the refinement.
;


